124
1000000
21140
77274
17681
76730
181393
210340
38452
28373
20246
115274
123667
78436
144171
111615
228518
129583
81819
57610
190516
164856
3761
225798
5824
184456
95279
64874
141414
243304
118226
154718
239059
195216
38586
107177
235562
28497
190972
46889
10067
244850
122855
126101
178251
156881
4461
58515
24341
85035
84228
244352
80113
142449
240882
248348
39745
160058
201994
215352
17792
150744
89147
126562
75362
194114
31701
90745
94205
242778
57455
163018
64011
161311
135002
138947
216117
212007
149351
108781
115580
75
61289
189310
56455
32152
530
200617
88725
196924
137477
121916
111963
192779
18547
171812
30813
249377
123101
36825
230663
132278
27735
6718
42968
108588
234386
148048
185900
8858
189427
196249
162236
114409
73133
32601
75928
220718
164768
143270
203316
249609
7886
66944
191437
40326
